(declare-const BAV1 Bool)
(declare-const BAV2 Bool)
(declare-const GEN2 Real)
(declare-const GEN1 Real)
(set-option :auto-config true)
(set-option :produce-models true)
(define-fun mydiv ((x Real) (y Real)) Real
  (if (not (= y 0.0))
      (/ x y)
      0.0))
(declare-const a Real)
(declare-const b Real)
(assert (>= (mydiv a b) GEN1))
(assert (= b GEN2))
(assert (= BAV1 (>= (mydiv a b) GEN1)))
(assert (= BAV2 (= b GEN2)))
(check-sat)
(get-model)